NAME: star_n16
TYPE: TSP
DIMENSION: 16
EDGE_WEIGHT_TYPE: EUC_2D
NODE_COORD_SECTION
1 0.000000 0.000000
2 100.000000 0.000000
3 91.354546 40.673664
4 66.913061 74.314483
5 30.901699 95.105652
6 -10.452846 99.452190
7 -50.000000 86.602540
8 -80.901699 58.778525
9 -97.814760 20.791169
10 -97.814760 -20.791169
11 -80.901699 -58.778525
12 -50.000000 -86.602540
13 -10.452846 -99.452190
14 30.901699 -95.105652
15 66.913061 -74.314483
16 91.354546 -40.673664
EOF
